
Gurobi 10.0.3 (linux64, gurobi_cl) logging started Thu Nov  2 11:34:01 2023

Set parameter Username
Set parameter TimeLimit to value 3600
Set parameter LogFile to value "RCPSP_305.log"
Set parameter Threads to value 32
Academic license - for non-commercial use only - expires 2024-10-30
Using license file /home/jrivera6/gurobi-licenses/v1003/compute-0-34/gurobi.lic

Gurobi Optimizer version 10.0.3 build v10.0.3rc0 (linux64)
Copyright (c) 2023, Gurobi Optimization, LLC

Read MPS format model from file RCPSP_305.mps
Reading time = 0.01 seconds
RCPSP_305: 5339 rows, 2080 columns, 18883 nonzeros

CPU model: Intel(R) Xeon(R) Gold 6130 CPU @ 2.10GHz, instruction set [SSE2|AVX|AVX2|AVX512]
Thread count: 32 physical cores, 32 logical processors, using up to 32 threads

Optimize a model with 5339 rows, 2080 columns and 18883 nonzeros
Model fingerprint: 0x6ca0ef4a
Variable types: 32 continuous, 2048 integer (2048 binary)
Coefficient statistics:
  Matrix range     [1e+00, 2e+02]
  Objective range  [1e+00, 1e+00]
  Bounds range     [1e+00, 1e+00]
  RHS range        [1e+00, 2e+02]
Presolve removed 2938 rows and 1138 columns
Presolve time: 0.25s
Presolved: 2401 rows, 942 columns, 8646 nonzeros
Variable types: 31 continuous, 911 integer (911 binary)

Root relaxation: objective 4.800000e+01, 324 iterations, 0.00 seconds (0.00 work units)

    Nodes    |    Current Node    |     Objective Bounds      |     Work
 Expl Unexpl |  Obj  Depth IntInf | Incumbent    BestBd   Gap | It/Node Time

     0     0   48.00000    0    8          -   48.00000      -     -    0s
H    0     0                      53.0000000   48.00000  9.43%     -    0s
     0     0   48.00000    0   26   53.00000   48.00000  9.43%     -    0s
     0     0   48.00000    0    9   53.00000   48.00000  9.43%     -    4s
     0     0   48.00000    0   19   53.00000   48.00000  9.43%     -    5s
     0     0   48.00000    0    6   53.00000   48.00000  9.43%     -    5s
H    0     0                      52.0000000   48.00000  7.69%     -    5s
     0     0   48.00000    0    6   52.00000   48.00000  7.69%     -    6s
     0     0   49.00000    0   10   52.00000   49.00000  5.77%     -    7s
     0     0   49.00000    0   14   52.00000   49.00000  5.77%     -    8s
     0     0   49.00000    0   40   52.00000   49.00000  5.77%     -    8s
H    0     0                      51.0000000   49.00000  3.92%     -    9s
     0     0   49.00000    0   39   51.00000   49.00000  3.92%     -    9s
     0     0   49.00000    0   35   51.00000   49.00000  3.92%     -   10s
     0     0   49.00000    0   60   51.00000   49.00000  3.92%     -   10s
     0     0   49.00000    0   56   51.00000   49.00000  3.92%     -   11s
     0     0   49.00000    0   65   51.00000   49.00000  3.92%     -   11s
     0     0   49.00000    0   60   51.00000   49.00000  3.92%     -   12s
     0     0   49.00000    0    9   51.00000   49.00000  3.92%     -   17s
     0     0   49.00000    0   25   51.00000   49.00000  3.92%     -   17s
     0     0   49.00000    0   21   51.00000   49.00000  3.92%     -   17s
     0     0   50.00000    0   26   51.00000   50.00000  1.96%     -   18s
H    0     0                      50.0000000   50.00000  0.00%     -   19s
     0     0   50.00000    0   65   50.00000   50.00000  0.00%     -   19s

Cutting planes:
  Learned: 2
  Gomory: 9
  Cover: 13
  Implied bound: 25
  Clique: 10
  MIR: 45
  RLT: 8
  Relax-and-lift: 5

Explored 1 nodes (4870 simplex iterations) in 19.72 seconds (0.56 work units)
Thread count was 32 (of 32 available processors)

Solution count 4: 50 51 52 53 

Optimal solution found (tolerance 1.00e-04)
Best objective 5.000000000000e+01, best bound 5.000000000000e+01, gap 0.0000%

Wrote result file 'RCPSP_305.sol'

